50
12248

280 734
743 474
444 768
611 759
506 273
588 458
389 447
380 32
723 865
904 349
74 463
809 797
746 726
691 621
971 37
624 643
762 393
466 438
309 667
593 327
945 591
452 834
668 14
742 22
754 91
562 663
287 661
5 793
981 712
754 448
161 11
442 74
599 551
738 698
83 291
858 733
325 683
387 336
441 990
335 585
187 361
158 48
336 993
791 226
255 966
747 740
979 248
160 899
576 545
625 532
